c atoms: E(0,0) E(4,4) E(0,4) E(4,0) E(0,2) E(2,0) E(2,2) E(3,0) E(0,3) E(3,3) E(5,0) E(0,5) E(5,5) E(1,1) E(1,0) E(0,1) E(2,4) E(4,2) E(3,4) E(4,3) E(5,4) E(4,5) E(4,1) E(1,4) E(3,2) E(2,3) E(5,2) E(2,5) E(1,2) E(2,1) E(3,5) E(5,3) E(1,3) E(3,1) E(5,1) E(1,5)
p cnf 36 234
-1 0
-14 0
-7 0
-10 0
-2 0
-13 0
1 -1 0
16 -15 0
5 -6 0
9 -8 0
3 -4 0
12 -11 0
15 -16 0
14 -14 0
29 -30 0
33 -34 0
24 -23 0
36 -35 0
6 -5 0
30 -29 0
7 -7 0
26 -25 0
17 -18 0
28 -27 0
8 -9 0
34 -33 0
25 -26 0
10 -10 0
19 -20 0
31 -32 0
4 -3 0
23 -24 0
18 -17 0
20 -19 0
2 -2 0
22 -21 0
11 -12 0
35 -36 0
27 -28 0
32 -31 0
21 -22 0
13 -13 0
1 16 5 9 3 -12 0
1 16 5 9 12 -3 0
1 16 5 3 12 -9 0
1 16 9 3 12 -5 0
1 5 9 3 12 -16 0
16 5 9 3 12 -1 0
15 14 29 33 24 -36 0
15 14 29 33 36 -24 0
15 14 29 24 36 -33 0
15 14 33 24 36 -29 0
15 29 33 24 36 -14 0
14 29 33 24 36 -15 0
6 30 7 26 17 -28 0
6 30 7 26 28 -17 0
6 30 7 17 28 -26 0
6 30 26 17 28 -7 0
6 7 26 17 28 -30 0
30 7 26 17 28 -6 0
8 34 25 10 19 -31 0
8 34 25 10 31 -19 0
8 34 25 19 31 -10 0
8 34 10 19 31 -25 0
8 25 10 19 31 -34 0
34 25 10 19 31 -8 0
4 23 18 20 2 -22 0
4 23 18 20 22 -2 0
4 23 18 2 22 -20 0
4 23 20 2 22 -18 0
4 18 20 2 22 -23 0
23 18 20 2 22 -4 0
11 35 27 32 21 -13 0
11 35 27 32 13 -21 0
11 35 27 21 13 -32 0
11 35 32 21 13 -27 0
11 27 32 21 13 -35 0
35 27 32 21 13 -11 0
1 16 5 -9 -3 -12 0
1 16 9 -5 -3 -12 0
1 16 3 -5 -9 -12 0
1 16 12 -5 -9 -3 0
1 5 9 -16 -3 -12 0
1 5 3 -16 -9 -12 0
1 5 12 -16 -9 -3 0
1 9 3 -16 -5 -12 0
1 9 12 -16 -5 -3 0
1 3 12 -16 -5 -9 0
16 5 9 -1 -3 -12 0
16 5 3 -1 -9 -12 0
16 5 12 -1 -9 -3 0
16 9 3 -1 -5 -12 0
16 9 12 -1 -5 -3 0
16 3 12 -1 -5 -9 0
5 9 3 -1 -16 -12 0
5 9 12 -1 -16 -3 0
5 3 12 -1 -16 -9 0
9 3 12 -1 -16 -5 0
15 14 29 -33 -24 -36 0
15 14 33 -29 -24 -36 0
15 14 24 -29 -33 -36 0
15 14 36 -29 -33 -24 0
15 29 33 -14 -24 -36 0
15 29 24 -14 -33 -36 0
15 29 36 -14 -33 -24 0
15 33 24 -14 -29 -36 0
15 33 36 -14 -29 -24 0
15 24 36 -14 -29 -33 0
14 29 33 -15 -24 -36 0
14 29 24 -15 -33 -36 0
14 29 36 -15 -33 -24 0
14 33 24 -15 -29 -36 0
14 33 36 -15 -29 -24 0
14 24 36 -15 -29 -33 0
29 33 24 -15 -14 -36 0
29 33 36 -15 -14 -24 0
29 24 36 -15 -14 -33 0
33 24 36 -15 -14 -29 0
6 30 7 -26 -17 -28 0
6 30 26 -7 -17 -28 0
6 30 17 -7 -26 -28 0
6 30 28 -7 -26 -17 0
6 7 26 -30 -17 -28 0
6 7 17 -30 -26 -28 0
6 7 28 -30 -26 -17 0
6 26 17 -30 -7 -28 0
6 26 28 -30 -7 -17 0
6 17 28 -30 -7 -26 0
30 7 26 -6 -17 -28 0
30 7 17 -6 -26 -28 0
30 7 28 -6 -26 -17 0
30 26 17 -6 -7 -28 0
30 26 28 -6 -7 -17 0
30 17 28 -6 -7 -26 0
7 26 17 -6 -30 -28 0
7 26 28 -6 -30 -17 0
7 17 28 -6 -30 -26 0
26 17 28 -6 -30 -7 0
8 34 25 -10 -19 -31 0
8 34 10 -25 -19 -31 0
8 34 19 -25 -10 -31 0
8 34 31 -25 -10 -19 0
8 25 10 -34 -19 -31 0
8 25 19 -34 -10 -31 0
8 25 31 -34 -10 -19 0
8 10 19 -34 -25 -31 0
8 10 31 -34 -25 -19 0
8 19 31 -34 -25 -10 0
34 25 10 -8 -19 -31 0
34 25 19 -8 -10 -31 0
34 25 31 -8 -10 -19 0
34 10 19 -8 -25 -31 0
34 10 31 -8 -25 -19 0
34 19 31 -8 -25 -10 0
25 10 19 -8 -34 -31 0
25 10 31 -8 -34 -19 0
25 19 31 -8 -34 -10 0
10 19 31 -8 -34 -25 0
4 23 18 -20 -2 -22 0
4 23 20 -18 -2 -22 0
4 23 2 -18 -20 -22 0
4 23 22 -18 -20 -2 0
4 18 20 -23 -2 -22 0
4 18 2 -23 -20 -22 0
4 18 22 -23 -20 -2 0
4 20 2 -23 -18 -22 0
4 20 22 -23 -18 -2 0
4 2 22 -23 -18 -20 0
23 18 20 -4 -2 -22 0
23 18 2 -4 -20 -22 0
23 18 22 -4 -20 -2 0
23 20 2 -4 -18 -22 0
23 20 22 -4 -18 -2 0
23 2 22 -4 -18 -20 0
18 20 2 -4 -23 -22 0
18 20 22 -4 -23 -2 0
18 2 22 -4 -23 -20 0
20 2 22 -4 -23 -18 0
11 35 27 -32 -21 -13 0
11 35 32 -27 -21 -13 0
11 35 21 -27 -32 -13 0
11 35 13 -27 -32 -21 0
11 27 32 -35 -21 -13 0
11 27 21 -35 -32 -13 0
11 27 13 -35 -32 -21 0
11 32 21 -35 -27 -13 0
11 32 13 -35 -27 -21 0
11 21 13 -35 -27 -32 0
35 27 32 -11 -21 -13 0
35 27 21 -11 -32 -13 0
35 27 13 -11 -32 -21 0
35 32 21 -11 -27 -13 0
35 32 13 -11 -27 -21 0
35 21 13 -11 -27 -32 0
27 32 21 -11 -35 -13 0
27 32 13 -11 -35 -21 0
27 21 13 -11 -35 -32 0
32 21 13 -11 -35 -27 0
1 -16 -5 -9 -3 -12 0
16 -1 -5 -9 -3 -12 0
5 -1 -16 -9 -3 -12 0
9 -1 -16 -5 -3 -12 0
3 -1 -16 -5 -9 -12 0
12 -1 -16 -5 -9 -3 0
15 -14 -29 -33 -24 -36 0
14 -15 -29 -33 -24 -36 0
29 -15 -14 -33 -24 -36 0
33 -15 -14 -29 -24 -36 0
24 -15 -14 -29 -33 -36 0
36 -15 -14 -29 -33 -24 0
6 -30 -7 -26 -17 -28 0
30 -6 -7 -26 -17 -28 0
7 -6 -30 -26 -17 -28 0
26 -6 -30 -7 -17 -28 0
17 -6 -30 -7 -26 -28 0
28 -6 -30 -7 -26 -17 0
8 -34 -25 -10 -19 -31 0
34 -8 -25 -10 -19 -31 0
25 -8 -34 -10 -19 -31 0
10 -8 -34 -25 -19 -31 0
19 -8 -34 -25 -10 -31 0
31 -8 -34 -25 -10 -19 0
4 -23 -18 -20 -2 -22 0
23 -4 -18 -20 -2 -22 0
18 -4 -23 -20 -2 -22 0
20 -4 -23 -18 -2 -22 0
2 -4 -23 -18 -20 -22 0
22 -4 -23 -18 -20 -2 0
11 -35 -27 -32 -21 -13 0
35 -11 -27 -32 -21 -13 0
27 -11 -35 -32 -21 -13 0
32 -11 -35 -27 -21 -13 0
21 -11 -35 -27 -32 -13 0
13 -11 -35 -27 -32 -21 0
